DIMACS2
80 141 147 10 249 171 252 68 27 275 196 106 94 155 108 208 203 211 188 267 120 4 132 26 179 21 223 241 18 107 73 128 190 88 271 99 63 89 234 6 235 65 39 49 140 289 47 244 201 204 119 306 115 30 286 124 57 34 66 194 281 258 92 238 17 123 221 133 282 104 212 38 250 72 315 75 311 74 185 222 13
p edge 320 1938
e 0 72 11.0
e 0 39 31.0
e 0 298 11.0
e 0 68 5.0
e 0 196 13.0
e 0 220 11.0
e 1 136 1.0
e 2 59 1.0
e 3 34 1.0
e 3 251 2.0
e 4 157 47.0
e 4 204 24.0
e 4 58 5.0
e 4 284 3.0
e 4 134 1.0
e 4 237 40.0
e 4 129 28.0
e 4 119 17.0
e 4 170 1.0
e 4 54 47.0
e 4 3 43.0
e 4 178 34.0
e 4 66 28.0
e 4 141 4.0
e 4 152 36.0
e 4 67 30.0
e 4 17 6.0
e 4 156 22.0
e 4 35 23.0
e 4 84 30.0
e 4 268 27.0
e 4 124 49.0
e 5 217 1.0
e 6 206 14.0
e 6 209 5.0
e 6 44 38.0
e 6 259 4.0
e 6 4 42.0
e 6 70 34.0
e 6 98 48.0
e 6 207 33.0
e 6 307 8.0
e 6 269 21.0
e 6 313 26.0
e 6 61 21.0
e 6 262 15.0
e 6 218 35.0
e 6 146 30.0
e 6 1 3.0
e 6 164 7.0
e 6 273 5.0
e 6 261 19.0
e 6 250 25.0
e 6 238 2.0
e 6 224 40.0
e 6 135 48.0
e 7 253 1.0
e 8 146 2.0
e 9 19 1.0
e 10 4 31.0
e 10 11 39.0
e 10 268 10.0
e 10 68 35.0
e 10 282 45.0
e 10 175 3.0
e 10 130 1.0
e 10 262 23.0
e 10 86 2.0
e 10 230 34.0
e 10 28 16.0
e 10 185 36.0
e 10 305 30.0
e 10 153 15.0
e 10 265 12.0
e 10 191 38.0
e 10 47 13.0
e 10 273 47.0
e 10 267 35.0
e 10 56 43.0
e 10 253 8.0
e 10 13 14.0
e 10 16 29.0
e 10 78 15.0
e 10 157 35.0
e 11 158 1.0
e 12 168 2.0
e 12 237 2.0
e 12 163 6.0
e 12 109 4.0
e 13 173 13.0
e 13 209 43.0
e 13 167 19.0
e 13 2 18.0
e 13 100 1.0
e 13 35 10.0
e 13 164 11.0
e 13 279 19.0
e 13 274 18.0
e 13 208 27.0
e 13 145 18.0
e 13 80 5.0
e 13 71 46.0
e 13 3 5.0
e 13 63 7.0
e 13 56 38.0
e 13 87 29.0
e 13 156 24.0
e 13 218 14.0
e 13 25 28.0
e 13 105 20.0
e 13 128 7.0
e 13 299 24.0
e 13 118 9.0
e 14 232 1.0
e 15 92 8.0
e 16 163 1.0
e 17 267 17.0
e 17 247 23.0
e 17 268 46.0
e 17 316 34.0
e 17 233 9.0
e 17 282 40.0
e 17 118 42.0
e 17 248 46.0
e 17 310 31.0
e 17 128 18.0
e 17 50 8.0
e 17 129 29.0
e 17 58 32.0
e 17 83 1.0
e 17 266 16.0
e 17 124 17.0
e 17 235 32.0
e 17 213 45.0
e 17 178 23.0
e 17 200 10.0
e 17 270 39.0
e 17 134 31.0
e 17 41 44.0
e 18 87 21.0
e 18 241 41.0
e 18 56 23.0
e 18 181 30.0
e 18 17 10.0
e 18 258 49.0
e 18 112 34.0
e 18 295 5.0
e 18 271 5.0
e 18 250 9.0
e 18 292 12.0
e 18 84 17.0
e 18 93 36.0
e 18 296 42.0
e 18 203 4.0
e 18 163 40.0
e 18 189 5.0
e 18 134 13.0
e 18 100 36.0
e 18 32 36.0
e 18 113 25.0
e 18 13 25.0
e 18 229 4.0
e 18 38 12.0
e 19 241 9.0
e 20 29 2.0
e 20 86 1.0
e 21 98 29.0
e 21 27 31.0
e 21 25 20.0
e 21 220 22.0
e 21 274 4.0
e 21 180 10.0
e 21 248 41.0
e 21 249 11.0
e 21 157 18.0
e 21 18 2.0
e 21 125 45.0
e 21 93 38.0
e 21 155 26.0
e 21 310 23.0
e 21 169 32.0
e 21 270 42.0
e 21 161 2.0
e 21 246 41.0
e 21 183 39.0
e 21 195 2.0
e 21 79 16.0
e 21 42 44.0
e 21 207 9.0
e 21 222 34.0
e 21 178 37.0
e 22 159 1.0
e 23 95 2.0
e 24 242 2.0
e 25 48 1.0
e 26 5 15.0
e 26 184 29.0
e 26 67 42.0
e 26 9 5.0
e 26 14 23.0
e 26 192 35.0
e 26 57 33.0
e 26 247 31.0
e 26 58 43.0
e 26 190 38.0
e 26 15 30.0
e 26 221 22.0
e 26 314 43.0
e 26 303 19.0
e 26 296 19.0
e 26 205 23.0
e 26 273 5.0
e 26 275 25.0
e 26 85 11.0
e 26 269 42.0
e 26 110 16.0
e 26 128 35.0
e 26 196 44.0
e 26 141 13.0
e 27 188 49.0
e 27 7 10.0
e 27 262 47.0
e 27 101 16.0
e 27 77 45.0
e 27 23 23.0
e 27 97 16.0
e 27 138 40.0
e 27 230 29.0
e 27 213 10.0
e 27 297 34.0
e 27 179 10.0
e 27 57 35.0
e 27 119 48.0
e 27 22 19.0
e 27 72 28.0
e 27 100 31.0
e 27 150 13.0
e 27 55 29.0
e 27 257 17.0
e 27 170 27.0
e 27 307 5.0
e 27 102 45.0
e 28 140 25.0
e 29 120 11.0
e 30 136 8.0
e 30 51 36.0
e 30 257 31.0
e 30 120 31.0
e 30 97 9.0
e 30 179 38.0
e 30 81 4.0
e 30 64 10.0
e 30 133 7.0
e 30 292 5.0
e 30 172 45.0
e 30 314 28.0
e 30 201 8.0
e 30 170 9.0
e 30 141 9.0
e 30 183 39.0
e 30 121 37.0
e 30 237 47.0
e 30 102 36.0
e 30 315 16.0
e 30 247 1.0
e 30 49 10.0
e 30 211 26.0
e 30 148 15.0
e 30 238 35.0
e 31 53 1.0
e 32 311 34.0
e 32 125 2.0
e 32 245 4.0
e 33 306 23.0
e 33 232 1.0
e 33 263 3.0
e 33 227 3.0
e 34 289 18.0
e 34 241 43.0
e 34 67 26.0
e 34 150 15.0
e 34 206 32.0
e 34 4 15.0
e 34 145 13.0
e 34 32 46.0
e 34 242 45.0
e 34 110 29.0
e 34 272 8.0
e 34 66 33.0
e 34 183 43.0
e 34 243 18.0
e 34 115 19.0
e 34 72 45.0
e 34 244 18.0
e 34 94 34.0
e 34 214 15.0
e 34 182 2.0
e 34 112 29.0
e 34 119 5.0
e 34 18 48.0
e 34 226 48.0
e 35 7 1.0
e 36 7 2.0
e 36 147 27.0
e 37 39 33.0
e 38 297 43.0
e 38 134 23.0
e 38 296 44.0
e 38 128 20.0
e 38 291 16.0
e 38 163 45.0
e 38 164 5.0
e 38 35 39.0
e 38 84 35.0
e 38 211 39.0
e 38 148 6.0
e 38 192 30.0
e 38 293 43.0
e 38 286 12.0
e 38 17 34.0
e 38 140 11.0
e 38 298 42.0
e 38 11 28.0
e 38 249 8.0
e 38 274 38.0
e 38 238 28.0
e 38 168 45.0
e 38 272 11.0
e 39 181 17.0
e 39 227 46.0
e 39 58 11.0
e 39 199 23.0
e 39 191 14.0
e 39 263 14.0
e 39 195 15.0
e 39 79 11.0
e 39 171 22.0
e 39 278 14.0
e 39 160 9.0
e 39 314 49.0
e 39 29 31.0
e 39 15 11.0
e 39 299 16.0
e 39 281 24.0
e 39 243 22.0
e 39 200 29.0
e 39 22 1.0
e 39 65 38.0
e 39 145 13.0
e 39 271 23.0
e 39 95 12.0
e 40 310 1.0
e 41 315 13.0
e 42 205 2.0
e 43 311 5.0
e 43 97 4.0
e 43 220 5.0
e 43 36 1.0
e 44 59 1.0
e 45 275 38.0
e 45 177 1.0
e 46 102 1.0
e 47 226 21.0
e 47 132 34.0
e 47 37 44.0
e 47 75 16.0
e 47 250 48.0
e 47 24 15.0
e 47 235 18.0
e 47 18 31.0
e 47 219 27.0
e 47 25 26.0
e 47 89 28.0
e 47 57 10.0
e 47 93 1.0
e 47 259 42.0
e 47 92 14.0
e 47 28 33.0
e 47 71 19.0
e 47 294 16.0
e 47 251 10.0
e 47 196 36.0
e 48 224 4.0
e 49 85 6.0
e 49 80 39.0
e 49 54 20.0
e 49 211 23.0
e 49 269 35.0
e 49 308 26.0
e 49 135 16.0
e 49 114 2.0
e 49 98 24.0
e 49 16 45.0
e 49 111 10.0
e 49 61 5.0
e 49 232 31.0
e 49 224 12.0
e 49 5 31.0
e 49 163 47.0
e 49 128 40.0
e 49 28 19.0
e 49 157 4.0
e 49 99 25.0
e 49 113 24.0
e 49 302 13.0
e 50 74 46.0
e 51 304 4.0
e 51 184 1.0
e 51 270 6.0
e 52 159 1.0
e 53 44 1.0
e 54 207 1.0
e 55 101 1.0
e 56 250 17.0
e 57 297 18.0
e 57 172 32.0
e 57 125 33.0
e 57 246 49.0
e 57 221 24.0
e 57 78 41.0
e 57 173 37.0
e 57 127 43.0
e 57 267 24.0
e 57 310 25.0
e 57 196 43.0
e 57 134 13.0
e 57 90 32.0
e 57 306 39.0
e 57 12 10.0
e 57 229 16.0
e 57 85 9.0
e 57 208 40.0
e 57 168 16.0
e 57 273 14.0
e 57 65 39.0
e 58 40 1.0
e 59 134 5.0
e 60 190 33.0
e 61 97 1.0
e 62 231 1.0
e 62 25 4.0
e 63 226 33.0
e 63 184 45.0
e 63 37 11.0
e 63 76 17.0
e 63 281 25.0
e 63 301 10.0
e 63 153 31.0
e 63 229 13.0
e 63 139 14.0
e 63 34 32.0
e 63 81 1.0
e 63 118 31.0
e 63 11 42.0
e 63 274 47.0
e 63 85 9.0
e 63 222 28.0
e 63 51 10.0
e 63 185 37.0
e 63 219 16.0
e 63 143 41.0
e 63 179 41.0
e 64 160 1.0
e 65 240 28.0
e 65 100 38.0
e 65 209 23.0
e 65 313 21.0
e 65 25 28.0
e 65 75 7.0
e 65 277 12.0
e 65 283 41.0
e 65 4 5.0
e 65 132 24.0
e 65 184 25.0
e 65 241 2.0
e 65 309 20.0
e 65 249 27.0
e 65 84 24.0
e 65 40 37.0
e 65 58 35.0
e 65 15 25.0
e 65 137 49.0
e 65 282 26.0
e 65 21 14.0
e 65 271 20.0
e 65 20 23.0
e 66 82 22.0
e 66 31 1.0
e 66 248 8.0
e 66 218 16.0
e 66 62 39.0
e 66 137 43.0
e 66 41 4.0
e 66 193 35.0
e 66 60 23.0
e 66 208 3.0
e 66 288 47.0
e 66 8 38.0
e 66 177 40.0
e 66 94 42.0
e 66 250 13.0
e 66 165 45.0
e 66 124 28.0
e 66 271 5.0
e 66 139 18.0
e 66 199 19.0
e 66 240 24.0
e 66 70 28.0
e 67 31 1.0
e 68 23 31.0
e 68 182 9.0
e 68 55 15.0
e 68 60 49.0
e 68 43 49.0
e 68 250 49.0
e 68 106 17.0
e 68 178 40.0
e 68 215 2.0
e 68 222 16.0
e 68 316 24.0
e 68 86 25.0
e 68 163 29.0
e 68 61 26.0
e 68 284 15.0
e 68 247 24.0
e 68 76 22.0
e 68 276 5.0
e 68 255 44.0
e 68 216 36.0
e 68 185 11.0
e 69 170 2.0
e 70 228 1.0
e 71 4 13.0
e 72 251 4.0
e 72 166 35.0
e 72 164 16.0
e 72 68 30.0
e 72 180 5.0
e 72 103 21.0
e 72 182 47.0
e 72 69 3.0
e 72 73 19.0
e 72 276 37.0
e 72 199 13.0
e 72 255 21.0
e 72 223 24.0
e 72 258 44.0
e 72 62 35.0
e 72 290 23.0
e 72 224 35.0
e 72 229 35.0
e 72 162 49.0
e 72 225 9.0
e 72 171 40.0
e 72 57 18.0
e 73 25 38.0
e 73 279 32.0
e 73 265 7.0
e 73 182 48.0
e 73 30 14.0
e 73 159 31.0
e 73 160 33.0
e 73 308 9.0
e 73 158 36.0
e 73 236 5.0
e 73 12 24.0
e 73 74 48.0
e 73 218 19.0
e 73 314 30.0
e 73 18 38.0
e 73 226 4.0
e 73 286 31.0
e 73 238 33.0
e 73 227 23.0
e 73 125 30.0
e 73 145 49.0
e 73 232 46.0
e 73 208 6.0
e 73 49 28.0
e 74 259 47.0
e 74 8 33.0
e 74 35 15.0
e 74 71 4.0
e 74 240 9.0
e 74 99 39.0
e 74 64 16.0
e 74 275 27.0
e 74 146 25.0
e 74 29 21.0
e 74 81 30.0
e 74 135 44.0
e 74 263 38.0
e 74 230 2.0
e 74 134 34.0
e 74 218 45.0
e 74 193 20.0
e 74 208 27.0
e 74 11 20.0
e 74 219 11.0
e 74 211 16.0
e 74 69 5.0
e 74 98 15.0
e 75 287 37.0
e 75 51 7.0
e 75 231 16.0
e 75 60 19.0
e 75 293 26.0
e 75 116 42.0
e 75 227 40.0
e 75 228 4.0
e 75 278 15.0
e 75 191 40.0
e 75 66 10.0
e 75 208 16.0
e 75 114 12.0
e 75 31 14.0
e 75 263 31.0
e 75 265 16.0
e 75 48 12.0
e 75 105 49.0
e 75 296 31.0
e 75 94 10.0
e 75 299 2.0
e 76 60 1.0
e 77 96 1.0
e 78 230 1.0
e 79 239 1.0
e 79 0 11.0
e 80 97 1.0
e 81 207 1.0
e 82 318 1.0
e 83 267 11.0
e 84 133 47.0
e 85 238 6.0
e 86 15 1.0
e 87 244 4.0
e 88 271 26.0
e 88 125 14.0
e 88 201 31.0
e 88 24 24.0
e 88 16 17.0
e 88 115 44.0
e 88 175 44.0
e 88 64 25.0
e 88 0 30.0
e 88 108 38.0
e 88 1 20.0
e 88 261 19.0
e 88 263 19.0
e 88 2 18.0
e 88 132 47.0
e 88 4 34.0
e 88 68 15.0
e 88 149 17.0
e 88 185 44.0
e 88 192 20.0
e 88 306 36.0
e 88 35 43.0
e 88 256 44.0
e 88 142 16.0
e 88 158 17.0
e 89 121 14.0
e 89 25 44.0
e 89 162 5.0
e 89 304 45.0
e 89 219 24.0
e 89 315 24.0
e 89 110 11.0
e 89 150 5.0
e 89 317 14.0
e 89 269 47.0
e 89 208 18.0
e 89 87 10.0
e 89 117 28.0
e 89 253 30.0
e 89 73 4.0
e 89 41 32.0
e 89 62 3.0
e 89 63 34.0
e 89 300 32.0
e 89 138 14.0
e 89 248 2.0
e 89 120 24.0
e 89 18 5.0
e 90 165 1.0
e 91 244 15.0
e 91 183 1.0
e 92 16 35.0
e 92 302 38.0
e 92 274 29.0
e 92 313 14.0
e 92 165 37.0
e 92 121 22.0
e 92 32 15.0
e 92 153 15.0
e 92 263 39.0
e 92 298 27.0
e 92 187 17.0
e 92 315 21.0
e 92 53 23.0
e 92 203 6.0
e 92 154 46.0
e 92 106 37.0
e 92 261 21.0
e 92 116 4.0
e 92 267 3.0
e 92 25 20.0
e 92 86 9.0
e 92 45 11.0
e 92 117 40.0
e 93 205 1.0
e 94 108 19.0
e 94 8 43.0
e 94 15 12.0
e 94 86 46.0
e 94 266 1.0
e 94 98 11.0
e 94 57 17.0
e 94 87 43.0
e 94 6 7.0
e 94 14 29.0
e 94 140 10.0
e 94 271 30.0
e 94 72 7.0
e 94 13 1.0
e 94 180 26.0
e 94 146 45.0
e 94 291 22.0
e 94 154 6.0
e 94 111 33.0
e 94 192 47.0
e 94 293 36.0
e 94 90 32.0
e 95 186 1.0
e 96 89 22.0
e 97 69 1.0
e 98 315 49.0
e 99 248 45.0
e 99 197 3.0
e 99 19 43.0
e 99 68 48.0
e 99 72 46.0
e 99 57 10.0
e 99 101 10.0
e 99 315 1.0
e 99 50 19.0
e 99 36 34.0
e 99 298 12.0
e 99 113 39.0
e 99 62 36.0
e 99 171 32.0
e 99 129 5.0
e 99 33 36.0
e 99 70 48.0
e 99 71 5.0
e 99 265 28.0
e 99 8 47.0
e 99 38 19.0
e 99 165 6.0
e 99 39 26.0
e 100 232 1.0
e 101 299 1.0
e 102 316 2.0
e 103 7 1.0
e 104 71 37.0
e 104 279 38.0
e 104 239 22.0
e 104 316 8.0
e 104 224 12.0
e 104 227 3.0
e 104 166 19.0
e 104 214 28.0
e 104 0 49.0
e 104 159 43.0
e 104 72 28.0
e 104 191 21.0
e 104 54 45.0
e 104 88 13.0
e 104 36 46.0
e 104 78 39.0
e 104 228 14.0
e 104 148 33.0
e 104 26 17.0
e 104 236 21.0
e 104 62 7.0
e 104 153 11.0
e 104 137 44.0
e 104 240 3.0
e 105 171 41.0
e 106 114 15.0
e 106 224 18.0
e 106 262 2.0
e 106 173 1.0
e 106 107 34.0
e 106 292 35.0
e 106 141 33.0
e 106 180 39.0
e 106 9 3.0
e 106 139 24.0
e 106 231 7.0
e 106 127 3.0
e 106 99 9.0
e 106 111 46.0
e 106 297 18.0
e 106 11 47.0
e 106 308 3.0
e 106 301 19.0
e 106 37 42.0
e 106 133 28.0
e 106 156 48.0
e 106 249 7.0
e 106 245 7.0
e 107 181 30.0
e 107 117 43.0
e 107 170 48.0
e 107 235 22.0
e 107 44 11.0
e 107 168 21.0
e 107 156 36.0
e 107 272 20.0
e 107 315 2.0
e 107 33 3.0
e 107 65 49.0
e 107 144 2.0
e 107 19 20.0
e 107 0 25.0
e 107 104 42.0
e 107 88 8.0
e 107 266 20.0
e 107 3 24.0
e 107 167 4.0
e 107 252 33.0
e 107 16 22.0
e 107 41 5.0
e 107 166 7.0
e 107 108 46.0
e 108 272 29.0
e 108 253 25.0
e 108 29 5.0
e 108 270 29.0
e 108 5 33.0
e 108 241 14.0
e 108 222 40.0
e 108 300 27.0
e 108 166 2.0
e 108 152 46.0
e 108 249 29.0
e 108 46 10.0
e 108 36 11.0
e 108 17 19.0
e 108 89 46.0
e 108 282 4.0
e 108 231 7.0
e 108 252 12.0
e 108 251 43.0
e 108 54 17.0
e 108 32 43.0
e 108 191 35.0
e 109 104 31.0
e 109 283 3.0
e 109 154 3.0
e 110 201 43.0
e 111 252 13.0
e 112 49 25.0
e 112 298 2.0
e 113 210 1.0
e 114 154 1.0
e 115 136 47.0
e 115 36 1.0
e 115 51 47.0
e 115 195 42.0
e 115 200 41.0
e 115 63 14.0
e 115 282 11.0
e 115 20 32.0
e 115 199 8.0
e 115 289 11.0
e 115 249 9.0
e 115 17 2.0
e 115 93 5.0
e 115 40 42.0
e 115 64 16.0
e 115 285 47.0
e 115 189 34.0
e 115 196 43.0
e 115 37 24.0
e 115 182 41.0
e 115 262 2.0
e 115 243 5.0
e 116 284 1.0
e 117 273 1.0
e 118 123 33.0
e 119 24 7.0
e 119 116 9.0
e 119 166 3.0
e 119 88 27.0
e 119 179 16.0
e 119 158 30.0
e 119 72 49.0
e 119 228 13.0
e 119 219 2.0
e 119 38 6.0
e 119 293 8.0
e 119 255 9.0
e 119 99 15.0
e 119 168 2.0
e 119 186 20.0
e 119 148 2.0
e 119 89 23.0
e 119 167 28.0
e 119 291 19.0
e 119 73 27.0
e 119 290 18.0
e 119 91 2.0
e 120 202 22.0
e 120 90 6.0
e 120 272 28.0
e 120 118 24.0
e 120 162 11.0
e 120 269 8.0
e 120 223 33.0
e 120 41 27.0
e 120 208 10.0
e 120 215 22.0
e 120 286 13.0
e 120 2 41.0
e 120 46 33.0
e 120 249 14.0
e 120 88 33.0
e 120 154 37.0
e 120 156 31.0
e 120 250 26.0
e 120 47 25.0
e 120 161 7.0
e 120 77 11.0
e 121 177 5.0
e 122 125 2.0
e 123 224 23.0
e 123 290 42.0
e 123 26 39.0
e 123 106 38.0
e 123 220 43.0
e 123 167 15.0
e 123 57 45.0
e 123 291 11.0
e 123 177 24.0
e 123 198 20.0
e 123 294 5.0
e 123 169 3.0
e 123 126 13.0
e 123 72 27.0
e 123 74 44.0
e 123 180 8.0
e 123 302 35.0
e 123 304 11.0
e 123 34 22.0
e 123 283 14.0
e 123 45 41.0
e 123 221 10.0
e 123 37 14.0
e 124 268 26.0
e 124 160 22.0
e 124 24 15.0
e 124 228 46.0
e 124 167 42.0
e 124 305 37.0
e 124 275 42.0
e 124 229 20.0
e 124 126 42.0
e 124 29 17.0
e 124 115 7.0
e 124 169 47.0
e 124 2 9.0
e 124 183 49.0
e 124 191 32.0
e 124 318 3.0
e 124 19 35.0
e 124 107 23.0
e 124 152 6.0
e 124 178 17.0
e 125 70 2.0
e 126 251 5.0
e 127 49 46.0
e 128 244 10.0
e 128 148 8.0
e 128 312 44.0
e 128 122 27.0
e 128 304 33.0
e 128 89 31.0
e 128 316 18.0
e 128 138 48.0
e 128 2 26.0
e 128 282 11.0
e 128 224 24.0
e 128 127 46.0
e 128 116 20.0
e 128 30 35.0
e 128 154 24.0
e 128 131 42.0
e 128 254 45.0
e 128 119 30.0
e 129 244 46.0
e 130 40 2.0
e 130 120 25.0
e 131 47 48.0
e 132 210 16.0
e 132 190 28.0
e 132 231 13.0
e 132 89 9.0
e 132 275 44.0
e 132 42 43.0
e 132 133 36.0
e 132 170 8.0
e 132 169 45.0
e 132 233 24.0
e 132 57 10.0
e 132 159 28.0
e 132 234 37.0
e 132 14 24.0
e 132 53 35.0
e 132 296 3.0
e 132 90 44.0
e 132 109 30.0
e 132 91 13.0
e 132 1 36.0
e 132 184 45.0
e 133 57 38.0
e 133 44 20.0
e 133 193 27.0
e 133 213 19.0
e 133 65 24.0
e 133 210 47.0
e 133 64 16.0
e 133 189 47.0
e 133 220 1.0
e 133 38 17.0
e 133 233 33.0
e 133 243 31.0
e 133 131 37.0
e 133 63 49.0
e 133 9 19.0
e 133 214 7.0
e 133 301 36.0
e 133 191 25.0
e 133 66 19.0
e 133 261 26.0
e 133 114 28.0
e 134 47 5.0
e 135 78 1.0
e 136 52 1.0
e 137 22 1.0
e 138 47 12.0
e 139 174 1.0
e 140 86 36.0
e 140 193 12.0
e 140 176 42.0
e 140 198 8.0
e 140 308 6.0
e 140 27 8.0
e 140 104 30.0
e 140 13 20.0
e 140 120 29.0
e 140 66 16.0
e 140 108 30.0
e 140 39 1.0
e 140 122 16.0
e 140 73 2.0
e 140 287 15.0
e 140 173 21.0
e 140 189 24.0
e 140 279 25.0
e 140 42 32.0
e 140 292 19.0
e 140 115 8.0
e 140 160 11.0
e 141 68 22.0
e 141 169 33.0
e 141 294 18.0
e 141 139 4.0
e 141 121 24.0
e 141 151 44.0
e 141 242 43.0
e 141 63 12.0
e 141 152 36.0
e 141 96 28.0
e 141 27 6.0
e 141 221 13.0
e 141 171 4.0
e 141 127 23.0
e 141 10 9.0
e 141 128 35.0
e 141 99 12.0
e 141 237 1.0
e 141 311 5.0
e 141 265 9.0
e 141 184 23.0
e 142 199 1.0
e 143 176 1.0
e 144 253 2.0
e 145 63 28.0
e 146 198 2.0
e 147 84 27.0
e 147 108 16.0
e 147 81 48.0
e 147 13 20.0
e 147 185 37.0
e 147 254 10.0
e 147 261 1.0
e 147 285 41.0
e 147 266 1.0
e 147 280 40.0
e 147 38 47.0
e 147 148 20.0
e 147 267 20.0
e 147 3 36.0
e 147 317 5.0
e 147 149 49.0
e 147 300 33.0
e 147 150 4.0
e 147 138 25.0
e 147 257 27.0
e 147 77 22.0
e 147 216 30.0
e 147 304 41.0
e 147 116 5.0
e 148 70 1.0
e 149 83 1.0
e 150 210 1.0
e 151 16 3.0
e 152 190 3.0
e 153 114 1.0
e 154 66 22.0
e 155 192 13.0
e 155 204 29.0
e 155 66 20.0
e 155 267 48.0
e 155 77 43.0
e 155 94 8.0
e 155 161 44.0
e 155 118 30.0
e 155 290 4.0
e 155 55 48.0
e 155 20 23.0
e 155 81 16.0
e 155 46 7.0
e 155 178 21.0
e 155 257 2.0
e 155 68 23.0
e 155 32 33.0
e 155 169 4.0
e 155 74 33.0
e 155 238 21.0
e 155 63 27.0
e 155 222 36.0
e 155 171 39.0
e 155 119 19.0
e 156 8 1.0
e 157 93 1.0
e 158 294 1.0
e 159 59 1.0
e 160 19 1.0
e 161 168 1.0
e 162 259 1.0
e 163 6 49.0
e 164 153 1.0
e 165 44 1.0
e 166 56 1.0
e 167 5 1.0
e 168 194 43.0
e 169 128 10.0
e 170 50 1.0
e 171 269 47.0
e 171 161 6.0
e 171 152 12.0
e 171 17 26.0
e 171 135 42.0
e 171 89 10.0
e 171 108 33.0
e 171 300 42.0
e 171 258 33.0
e 171 266 41.0
e 171 73 14.0
e 171 275 5.0
e 171 197 21.0
e 171 201 19.0
e 171 276 36.0
e 171 290 30.0
e 171 88 16.0
e 171 315 17.0
e 172 207 1.0
e 173 132 7.0
e 174 284 1.0
e 175 284 1.0
e 176 236 1.0
e 177 19 2.0
e 178 131 1.0
e 179 103 30.0
e 179 51 1.0
e 179 139 1.0
e 179 223 44.0
e 179 276 8.0
e 179 90 22.0
e 179 92 40.0
e 179 209 26.0
e 179 260 19.0
e 179 152 8.0
e 179 194 21.0
e 179 6 27.0
e 179 185 49.0
e 179 294 24.0
e 179 20 4.0
e 179 65 25.0
e 179 38 2.0
e 179 191 23.0
e 179 214 3.0
e 179 295 18.0
e 179 9 17.0
e 180 105 1.0
e 181 292 1.0
e 182 208 10.0
e 183 165 1.0
e 184 6 14.0
e 185 130 46.0
e 185 186 4.0
e 185 250 27.0
e 185 91 46.0
e 185 141 13.0
e 185 316 35.0
e 185 23 5.0
e 185 66 11.0
e 185 140 15.0
e 185 65 23.0
e 185 290 10.0
e 185 263 14.0
e 185 244 19.0
e 185 39 39.0
e 185 45 32.0
e 185 302 17.0
e 185 223 45.0
e 185 242 44.0
e 185 233 4.0
e 186 270 1.0
e 187 124 38.0
e 188 115 17.0
e 188 254 47.0
e 188 137 18.0
e 188 275 22.0
e 188 42 11.0
e 188 255 28.0
e 188 196 28.0
e 188 82 30.0
e 188 221 29.0
e 188 79 38.0
e 188 171 25.0
e 188 190 24.0
e 188 250 48.0
e 188 68 9.0
e 188 102 29.0
e 188 65 37.0
e 188 186 37.0
e 188 129 15.0
e 188 112 25.0
e 188 197 13.0
e 188 185 16.0
e 188 242 18.0
e 188 194 48.0
e 188 117 34.0
e 189 287 1.0
e 190 28 7.0
e 190 231 10.0
e 190 216 18.0
e 190 155 16.0
e 190 149 49.0
e 190 126 21.0
e 190 9 16.0
e 190 309 46.0
e 190 302 13.0
e 190 233 2.0
e 190 145 1.0
e 190 40 41.0
e 190 3 38.0
e 190 140 20.0
e 190 129 29.0
e 190 50 18.0
e 190 20 30.0
e 190 94 23.0
e 190 137 10.0
e 190 208 36.0
e 191 63 49.0
e 192 297 1.0
e 193 29 1.0
e 194 200 7.0
e 194 185 18.0
e 194 294 27.0
e 194 186 45.0
e 194 69 4.0
e 194 198 47.0
e 194 193 2.0
e 194 223 25.0
e 194 21 35.0
e 194 187 49.0
e 194 92 40.0
e 194 213 34.0
e 194 113 38.0
e 194 140 37.0
e 194 111 46.0
e 194 39 48.0
e 194 201 31.0
e 194 73 3.0
e 194 264 41.0
e 194 221 35.0
e 194 161 37.0
e 194 317 24.0
e 195 146 1.0
e 196 225 32.0
e 196 296 45.0
e 196 260 21.0
e 196 54 21.0
e 196 235 19.0
e 196 192 21.0
e 196 295 35.0
e 196 96 6.0
e 196 314 17.0
e 196 195 29.0
e 196 67 44.0
e 196 185 42.0
e 196 48 30.0
e 196 147 46.0
e 196 126 29.0
e 196 246 4.0
e 196 254 18.0
e 196 51 8.0
e 196 22 5.0
e 197 61 1.0
e 198 131 1.0
e 199 83 1.0
e 200 276 1.0
e 201 83 34.0
e 201 285 47.0
e 201 75 40.0
e 201 275 9.0
e 201 141 12.0
e 201 155 33.0
e 201 233 9.0
e 201 267 9.0
e 201 250 42.0
e 201 82 48.0
e 201 301 46.0
e 201 281 32.0
e 201 234 33.0
e 201 221 46.0
e 201 106 45.0
e 201 74 42.0
e 201 172 31.0
e 201 288 8.0
e 201 300 4.0
e 201 39 9.0
e 202 26 45.0
e 203 9 46.0
e 203 91 15.0
e 203 67 18.0
e 203 303 14.0
e 203 128 18.0
e 203 80 48.0
e 203 304 8.0
e 203 94 16.0
e 203 281 14.0
e 203 295 41.0
e 203 21 14.0
e 203 244 20.0
e 203 30 15.0
e 203 233 13.0
e 203 122 35.0
e 203 194 37.0
e 203 264 23.0
e 203 234 26.0
e 203 305 4.0
e 203 133 46.0
e 203 275 18.0
e 203 107 18.0
e 203 260 34.0
e 204 175 46.0
e 204 205 19.0
e 204 315 35.0
e 204 221 2.0
e 204 161 14.0
e 204 152 48.0
e 204 103 1.0
e 204 286 35.0
e 204 246 3.0
e 204 245 16.0
e 204 21 23.0
e 204 136 28.0
e 204 236 21.0
e 204 55 20.0
e 204 122 48.0
e 204 200 6.0
e 204 79 26.0
e 204 267 3.0
e 204 74 29.0
e 204 101 17.0
e 204 185 47.0
e 204 12 40.0
e 205 1 1.0
e 206 247 1.0
e 207 181 1.0
e 208 110 14.0
e 208 69 39.0
e 208 311 6.0
e 208 194 24.0
e 208 303 37.0
e 208 185 37.0
e 208 76 37.0
e 208 43 37.0
e 208 246 17.0
e 208 134 8.0
e 208 77 12.0
e 208 99 23.0
e 208 48 3.0
e 208 295 16.0
e 208 80 47.0
e 209 53 1.0
e 210 59 2.0
e 211 206 11.0
e 211 110 13.0
e 211 43 16.0
e 211 0 48.0
e 211 215 1.0
e 211 21 25.0
e 211 317 4.0
e 211 295 31.0
e 211 175 48.0
e 211 32 38.0
e 211 95 26.0
e 211 130 40.0
e 211 80 40.0
e 211 121 34.0
e 211 242 20.0
e 211 259 47.0
e 211 91 27.0
e 211 303 19.0
e 211 23 4.0
e 211 171 23.0
e 211 281 28.0
e 212 181 41.0
e 212 74 2.0
e 212 149 34.0
e 212 275 1.0
e 212 124 13.0
e 212 43 36.0
e 212 270 11.0
e 212 106 40.0
e 212 75 15.0
e 212 76 12.0
e 212 80 3.0
e 212 155 31.0
e 212 92 7.0
e 212 52 23.0
e 212 243 31.0
e 212 171 43.0
e 212 94 6.0
e 212 303 2.0
e 212 190 31.0
e 212 187 17.0
e 212 241 44.0
e 212 95 24.0
e 212 221 12.0
e 212 26 2.0
e 212 96 32.0
e 213 60 2.0
e 214 280 3.0
e 215 273 1.0
e 216 240 1.0
e 217 82 3.0
e 218 82 2.0
e 219 217 1.0
e 220 226 1.0
e 221 56 39.0
e 221 27 19.0
e 221 119 28.0
e 221 55 31.0
e 221 43 49.0
e 221 309 15.0
e 221 80 41.0
e 221 233 44.0
e 221 203 31.0
e 221 52 10.0
e 221 48 1.0
e 221 120 31.0
e 221 197 33.0
e 221 28 13.0
e 221 305 22.0
e 221 234 17.0
e 222 120 33.0
e 222 205 5.0
e 222 275 12.0
e 222 127 34.0
e 222 200 4.0
e 222 135 18.0
e 222 258 10.0
e 222 75 31.0
e 222 255 13.0
e 222 76 16.0
e 222 53 1.0
e 222 257 48.0
e 222 22 27.0
e 222 277 3.0
e 222 171 30.0
e 222 52 40.0
e 222 92 36.0
e 222 94 17.0
e 222 45 42.0
e 222 129 33.0
e 223 263 39.0
e 223 171 11.0
e 223 75 17.0
e 223 233 13.0
e 223 100 33.0
e 223 244 46.0
e 223 6 36.0
e 223 46 14.0
e 223 309 31.0
e 223 234 7.0
e 223 114 34.0
e 223 315 20.0
e 223 119 29.0
e 223 305 33.0
e 223 172 22.0
e 223 206 40.0
e 223 45 34.0
e 223 115 16.0
e 223 258 11.0
e 223 92 44.0
e 224 278 1.0
e 225 22 2.0
e 226 118 2.0
e 227 102 1.0
e 228 136 1.0
e 229 230 1.0
e 230 202 1.0
e 231 17 30.0
e 232 24 2.0
e 233 311 2.0
e 234 77 5.0
e 234 179 6.0
e 234 119 3.0
e 234 235 16.0
e 234 237 31.0
e 234 264 9.0
e 234 106 1.0
e 234 33 19.0
e 234 103 16.0
e 234 241 17.0
e 234 155 5.0
e 234 23 49.0
e 234 172 17.0
e 234 99 3.0
e 234 149 45.0
e 234 195 7.0
e 234 55 24.0
e 234 285 45.0
e 234 286 9.0
e 235 150 28.0
e 235 187 31.0
e 235 254 10.0
e 235 195 22.0
e 235 113 9.0
e 235 305 3.0
e 235 174 23.0
e 235 214 21.0
e 235 318 38.0
e 235 103 10.0
e 235 4 47.0
e 235 75 29.0
e 235 123 2.0
e 235 30 32.0
e 235 175 21.0
e 235 105 27.0
e 235 95 47.0
e 235 111 49.0
e 235 275 39.0
e 235 76 21.0
e 236 164 1.0
e 237 96 2.0
e 238 220 36.0
e 238 201 42.0
e 238 306 20.0
e 238 210 30.0
e 238 249 26.0
e 238 46 17.0
e 238 175 30.0
e 238 47 23.0
e 238 307 44.0
e 238 96 10.0
e 238 101 49.0
e 238 174 35.0
e 238 187 48.0
e 238 233 21.0
e 238 309 25.0
e 238 285 8.0
e 238 208 7.0
e 238 52 39.0
e 238 225 12.0
e 240 177 2.0
e 241 310 45.0
e 241 112 11.0
e 241 233 20.0
e 241 288 24.0
e 241 121 7.0
e 241 174 8.0
e 241 176 30.0
e 241 127 11.0
e 241 123 10.0
e 241 306 49.0
e 241 31 10.0
e 241 187 10.0
e 241 286 25.0
e 241 47 24.0
e 241 287 27.0
e 241 245 22.0
e 241 194 22.0
e 241 101 30.0
e 242 267 48.0
e 243 301 1.0
e 244 198 37.0
e 244 283 20.0
e 244 113 14.0
e 244 138 6.0
e 244 245 5.0
e 244 287 12.0
e 244 249 38.0
e 244 103 22.0
e 244 104 41.0
e 244 234 19.0
e 244 174 13.0
e 244 275 6.0
e 244 190 13.0
e 244 47 40.0
e 244 264 9.0
e 244 105 27.0
e 244 282 41.0
e 245 151 1.0
e 246 158 1.0
e 247 144 1.0
e 248 234 28.0
e 249 277 18.0
e 249 30 9.0
e 249 176 27.0
e 249 23 48.0
e 249 24 23.0
e 249 188 5.0
e 249 309 6.0
e 249 306 1.0
e 249 194 43.0
e 249 104 37.0
e 249 190 19.0
e 249 49 30.0
e 249 267 46.0
e 249 105 17.0
e 249 107 5.0
e 249 109 31.0
e 250 5 25.0
e 250 234 11.0
e 250 282 41.0
e 250 306 34.0
e 250 104 46.0
e 250 190 46.0
e 250 33 13.0
e 250 255 16.0
e 250 26 3.0
e 250 106 34.0
e 250 251 24.0
e 250 34 36.0
e 250 107 44.0
e 251 299 5.0
e 252 267 13.0
e 252 47 43.0
e 252 278 22.0
e 252 244 24.0
e 252 138 5.0
e 252 49 24.0
e 252 260 27.0
e 252 151 6.0
e 252 203 9.0
e 252 221 48.0
e 252 26 11.0
e 252 256 47.0
e 252 33 44.0
e 252 176 36.0
e 252 179 1.0
e 252 208 25.0
e 252 222 37.0
e 252 27 18.0
e 252 200 13.0
e 252 190 12.0
e 252 109 10.0
e 252 234 2.0
e 253 240 1.0
e 254 144 2.0
e 255 75 22.0
e 256 171 41.0
e 257 117 1.0
e 258 214 17.0
e 258 49 44.0
e 258 211 18.0
e 258 216 3.0
e 258 234 47.0
e 258 235 26.0
e 258 261 17.0
e 258 188 4.0
e 258 27 28.0
e 258 212 37.0
e 258 107 23.0
e 258 108 18.0
e 258 306 17.0
e 258 150 12.0
e 258 268 40.0
e 258 215 16.0
e 258 307 11.0
e 258 179 48.0
e 258 267 34.0
e 259 4 18.0
e 260 314 2.0
e 261 189 1.0
e 262 128 46.0
e 263 260 2.0
e 264 126 1.0
e 265 83 1.0
e 266 31 1.0
e 267 189 2.0
e 267 235 17.0
e 267 236 39.0
e 267 253 26.0
e 267 108 43.0
e 267 234 11.0
e 267 221 21.0
e 267 49 47.0
e 267 237 41.0
e 267 194 47.0
e 267 225 48.0
e 267 0 25.0
e 268 291 10.0
e 268 109 6.0
e 269 277 3.0
e 270 250 37.0
e 271 157 43.0
e 271 312 46.0
e 271 151 18.0
e 271 306 40.0
e 271 307 23.0
e 271 267 11.0
e 271 6 20.0
e 271 208 28.0
e 271 254 15.0
e 271 313 14.0
e 271 109 33.0
e 271 235 28.0
e 271 152 30.0
e 271 179 12.0
e 271 188 21.0
e 271 10 49.0
e 271 215 30.0
e 271 256 10.0
e 271 275 28.0
e 272 123 19.0
e 273 216 1.0
e 274 264 1.0
e 275 80 23.0
e 275 112 2.0
e 275 111 29.0
e 275 10 1.0
e 275 179 49.0
e 275 306 22.0
e 275 307 25.0
e 275 115 12.0
e 275 120 14.0
e 275 121 37.0
e 275 238 32.0
e 276 50 2.0
e 277 293 1.0
e 278 206 1.0
e 279 7 1.0
e 280 50 1.0
e 281 42 4.0
e 281 34 28.0
e 281 112 1.0
e 281 277 25.0
e 281 115 16.0
e 281 120 36.0
e 281 121 13.0
e 281 188 48.0
e 281 10 41.0
e 281 196 21.0
e 281 197 29.0
e 281 267 2.0
e 281 123 18.0
e 281 151 29.0
e 281 282 11.0
e 281 128 46.0
e 281 235 48.0
e 281 198 35.0
e 281 209 49.0
e 282 204 34.0
e 282 222 10.0
e 282 235 49.0
e 282 155 33.0
e 282 267 48.0
e 282 132 35.0
e 282 112 24.0
e 282 140 19.0
e 282 123 49.0
e 282 188 1.0
e 282 124 42.0
e 282 130 21.0
e 282 131 40.0
e 282 286 4.0
e 282 306 9.0
e 282 249 45.0
e 283 68 35.0
e 284 85 1.0
e 285 250 10.0
e 286 245 2.0
e 286 123 12.0
e 286 124 17.0
e 286 208 15.0
e 286 238 28.0
e 286 306 29.0
e 286 128 48.0
e 286 130 16.0
e 286 131 4.0
e 286 225 29.0
e 286 132 24.0
e 286 196 38.0
e 286 133 40.0
e 286 140 42.0
e 286 34 41.0
e 286 141 6.0
e 286 142 38.0
e 286 145 43.0
e 287 262 2.0
e 288 162 1.0
e 289 87 43.0
e 289 124 10.0
e 289 128 14.0
e 289 130 44.0
e 289 132 15.0
e 289 133 32.0
e 289 141 34.0
e 289 196 29.0
e 289 142 35.0
e 289 306 4.0
e 289 239 26.0
e 289 307 46.0
e 289 311 43.0
e 289 143 1.0
e 289 144 35.0
e 289 145 16.0
e 289 146 11.0
e 289 147 16.0
e 289 200 1.0
e 289 201 3.0
e 289 267 16.0
e 289 202 16.0
e 289 203 49.0
e 290 124 49.0
e 291 162 1.0
e 292 210 1.0
e 293 310 2.0
e 294 229 1.0
e 295 61 1.0
e 296 37 2.0
e 297 82 1.0
e 298 14 1.0
e 299 60 2.0
e 300 41 1.0
e 301 15 1.0
e 302 122 1.0
e 303 308 1.0
e 304 75 16.0
e 305 218 1.0
e 306 173 28.0
e 306 316 4.0
e 306 307 43.0
e 306 208 33.0
e 306 145 1.0
e 306 281 5.0
e 306 124 17.0
e 306 245 22.0
e 306 217 28.0
e 306 130 25.0
e 306 132 42.0
e 306 196 19.0
e 307 47 7.0
e 308 78 1.0
e 309 63 38.0
e 310 42 3.0
e 311 180 29.0
e 311 132 43.0
e 311 133 21.0
e 311 312 17.0
e 311 142 22.0
e 311 196 24.0
e 311 201 39.0
e 311 143 19.0
e 311 144 1.0
e 311 147 43.0
e 311 306 9.0
e 311 313 21.0
e 311 202 27.0
e 311 203 45.0
e 311 204 34.0
e 311 13 5.0
e 311 211 44.0
e 311 212 31.0
e 311 213 21.0
e 312 59 1.0
e 313 182 1.0
e 314 279 1.0
e 315 281 3.0
e 315 201 16.0
e 315 1 32.0
e 315 256 13.0
e 315 133 34.0
e 315 202 37.0
e 315 142 34.0
e 315 203 31.0
e 315 6 44.0
e 315 141 31.0
e 315 143 25.0
e 315 147 8.0
e 315 211 29.0
e 315 212 8.0
e 315 258 38.0
e 316 38 3.0
e 317 258 46.0
e 318 27 39.0
e 319 18 18.0
e 319 201 28.0
